16
12
15 14 8 10 12 1 6 11 9 4 13 7 2 3
9 3 5 13 2 0 14 1 7 11 8 10 15 6 12 4
5 8 15 14 3 9 2 1 12 13 11 10 0 4 7
14 0 6 9 8 4 11 15 13 10 1 3 5
14 15 7 8 9
5 0 4 10 1 11 7
15 0 10
7 10 9
15 8 6 9 4 14 12 0 1 10 7 2 13
0 14 7 9 6 8 5 13 12 11 15
14 0 9 15 12 7 6 8 10 5
5 7 15 3 11 9
